! This is a comment
# This is another one
BEGIN
BEGIN_PATH_INPUT
&PATH
  restart_mode      = 'from_scratch'
  string_method     = 'neb',
  nstep_path        = 50,
  ds                = 2.D0,
  opt_scheme        = "broyden",
  num_of_images     = 7,
  k_max             = 0.3D0,
  k_min             = 0.2D0,
  CI_scheme         = "auto",
  path_thr          = 0.1D0,
/
END_PATH_INPUT
BEGIN_ENGINE_INPUT
&CONTROL
  prefix         = "01-Sb-layer-Se8-latest-reaction-step2-neb"
/
&SYSTEM
  ibrav                  = 0,
  nat                    = 16,
  ntyp                   = 2,
  ecutwfc                = 50.0,
  occupations='smearing', degauss=0.01, vdw_corr='grimme-d3',
/
&ELECTRONS
  electron_maxstep= 400,
  mixing_beta = 0.3,
/
&IONS
/
ATOMIC_SPECIES
Sb   121.8   Sb.pbesol-dn-kjpaw_psl.0.3.1.UPF
Se   78.96   Se.pbesol-n-kjpaw_psl.0.2.UPF
BEGIN_POSITIONS
FIRST_IMAGE
ATOMIC_POSITIONS { angstrom }
Sb   4.34383   0.15433   3.40877
Sb   2.21189   1.36217   1.82307
Sb   2.26530   3.95714   3.15146
Sb  -0.01811   5.16264   1.78208
Sb   8.66095   0.16736   3.38667
Sb   6.48997   1.40555   1.85889
Sb   6.48690   3.90845   3.38724
Sb   4.46641   5.21348   1.72302
Se   4.02415   2.31194   6.11918
Se   4.70180   3.38794   8.34866
Se   1.78821   2.03830   6.37382
Se   2.78004   3.37174   9.56174
Se   0.76387   4.18098   5.71403
Se   1.65603   5.46451   9.06058
Se  -1.25459   4.28259   6.91103
Se  -0.54755   4.93103   9.20250
LAST_IMAGE
ATOMIC_POSITIONS { angstrom }
Sb   4.20931   0.24086   3.19142
Sb   1.79776   1.73012   2.32288
Sb   1.97654   4.08487   3.99626
Sb  -0.04707   5.02015   2.09374
Sb   8.55395   0.28120   4.01576
Sb   6.67432   1.59979   2.28653
Sb   6.34768   4.06707   3.73452
Sb   4.19639   5.35991   2.27793
Se   4.11223   2.53009   5.61598
Se   4.86405   3.46975   7.64323
Se   4.14326   0.00742   5.76975
Se   3.10081   3.67860   9.14231
Se   0.10031   2.75038   5.81489
Se   2.12095   5.76926   8.56431
Se  -0.92617   4.81351   6.36167
Se  -0.14206   5.33726   8.60610
END_POSITIONS
K_POINTS automatic
  5 5 2 0 0 0
CELL_PARAMETERS { angstrom }
  8.60140   0.00000   0.00000
 -4.30070   7.44903   0.00000
  0.00000   0.00000  22.44401
END_ENGINE_INPUT
END
